\ Model (null)_copy
\ LP format - for model browsing. Use MPS format to capture full model detail.
Minimize
 
Subject To
 C16: X2 - 999999 X73 <= -1
 C20: X3 + 999999 X75 >= 9
 C27: - X2 + X3 + 999999 X79 >= 2
 C79: - X81 + X85 <= 0
 C81: X86 - X1526 <= 0
 C87: - X82 + X87 <= 0
 C92: - X83 + X88 <= 0
 C95: X85 + X86 + X87 + X88 - X89 >= 0
 C176: X2 + X3 + 999999 X230 >= 8
 C197: 2 X156 - 999999 X232 >= -999998
 C207: - X156 - X157 + X161 + X162 = 0
 C210: - 4 X159 - 10 X160 - 10 X161 - 4 X162 + X166 = 0
 C227: - X231 + X235 <= 0
 C232: - X234 + X236 <= 0
 C237: - X232 + X237 <= 0
 C239: X238 - X1608 <= 0
 C244: X235 + X236 + X237 + X238 - X239 >= 0
 C311: X2 - 999999 X373 >= -999992
 C314: X2 + 999999 X374 >= 11
 C318: X3 - 999999 X376 <= -1
 C321: X2 + X3 - 999999 X378 >= -999985
 C326: X2 + X3 + 999999 X380 <= 1.000005e+06
 C371: X385 - X1691 <= 0
 C374: - X381 + X619 >= 0
 C379: - X384 + X386 <= 0
 C381: X387 - X1690 <= 0
 C385: X388 - X1689 - X1770 <= 0
 C391: X385 + X386 + X387 + X388 - X389 >= 0
 C472: X2 + X3 + 999999 X530 >= 15
 C517: X535 - X1772 <= 0
 C524: - X534 + X536 <= 0
 C526: X537 - X1690 - X1771 <= 0
 C531: X538 - X1770 <= 0
 C536: X535 + X536 + X537 + X538 - X539 >= 0
 C537: X619 + X620 + X621 + X622 - 4 X623 <= 0
 C1348: X1516 - 999999 X1518 <= -1
 C1352: X1517 + 999999 X1520 >= 9
 C1438: X1516 + 999999 X1600 >= 7
 C1440: X1517 + 999999 X1601 >= 11
 C1527: X1516 + 999999 X1681 >= 11
 C1531: X1517 - 999999 X1683 <= -1
 C1533: - X1516 + X1517 - 999999 X1684 <= -4
 C1621: - X1516 + X1517 - 999999 X1765 <= -3
 C1626: X1516 + X1517 + 999999 X1768 >= 15
 C5: - X623 + [ X89 * X94 + X239 * X244 + X389 * X394 + X539 * X544 ] = 0
 C31: X78 + X80 + 3 X81 + [ X73 * X75 ] <= 3
 C33: X77 + X79 + 3 X82 + [ X74 * X75 ] <= 3
 C35: X77 + X79 + 3 X83 + [ X73 * X76 ] <= 3
 C178: X228 + X230 + 3 X231 + [ X223 * X225 ] <= 3
 C184: X228 + X230 + 3 X234 + [ X224 * X226 ] <= 3
 C328: X378 + X380 + X381 + [ X373 * X375 ] >= 1
 C333: X378 + X380 + 3 X384 + [ X374 * X376 ] <= 3
 C480: X528 + X530 + 3 X534 + [ X524 * X526 ] <= 3
 C1363: X1523 + X1525 + 3 X1526 + [ X1518 * X1520 ] <= 3
 C1453: X1603 + X1605 + 3 X1608 + [ X1600 * X1601 ] <= 3
 C1542: X1684 + X1686 + 3 X1689 + [ X1681 * X1682 ] <= 3
 C1544: X1684 + X1686 + 3 X1690 + [ X1680 * X1683 ] <= 3
 C1546: X1685 + X1687 + 3 X1691 + [ X1681 * X1683 ] <= 3
 C1630: X1765 + X1767 + 3 X1770 + [ X1762 * X1763 ] <= 3
 C1632: X1765 + X1767 + 3 X1771 + [ X1761 * X1764 ] <= 3
 C1634: X1766 + X1768 + 3 X1772 + [ X1762 * X1764 ] <= 3
Bounds
 X2 = 3
 X3 = 4
 X1516 = 3
 X1517 = 4
Binaries
 X73 X74 X75 X76 X77 X78 X79 X80 X81 X82 X83 X85 X86 X87 X88 X89 X94 X156
 X157 X159 X160 X161 X162 X166 X223 X224 X225 X226 X228 X230 X231 X232 X234
 X235 X236 X237 X238 X239 X244 X373 X374 X375 X376 X378 X380 X381 X384 X385
 X386 X387 X388 X389 X394 X524 X526 X528 X530 X534 X535 X536 X537 X538 X539
 X544 X619 X620 X621 X622 X623 X1518 X1520 X1523 X1525 X1526 X1600 X1601
 X1603 X1605 X1608 X1680 X1681 X1682 X1683 X1684 X1685 X1686 X1687 X1689
 X1690 X1691 X1761 X1762 X1763 X1764 X1765 X1766 X1767 X1768 X1770 X1771
 X1772
Generals
 X2 X3 X1516 X1517
End
